\ This file has been generated by DOcplex
\ ENCODING=ISO-8859-1
\Problem name: random_problem.lp

Minimize
 obj: - 5 x0 - 9 x1 - 3 x2 + 9 x3 - 8 x4 - 5 x5 - 3 x6 - 2 x7 - 9 x8 + 6 x9
      - 2 x10 + 4 x11 + 8 x12 + 6 x13 - 8 x14 + 10 x15 + 9 x16 + 7 x17 + 9 x18 +
      [ - 18 x0*x1 - 10 x0*x5 - 14 x0*x8 + 4 x0*x9 - 18 x0*x14 + 20 x1*x2
      - 16 x1*x11 + 4 x1*x15 + 12 x1*x17 + 4 x2*x5 - 8 x2*x6 - 2 x2*x13
      - 2 x2*x18 - 8 x3*x7 + 4 x3*x11 - 20 x3*x13 - 14 x3*x14 + 6 x3*x18
      - 12 x4*x6 + 12 x4*x11 + 20 x4*x14 - 4 x4*x15 - 16 x4*x18 + 2 x5*x11
      - 4 x5*x12 - 14 x5*x17 - 18 x6*x7 - 10 x6*x10 + 18 x6*x17 + 2 x7*x12
      - 8 x7*x13 + 16 x7*x15 - 4 x8*x9 + 10 x8*x10 + 8 x8*x12 - 12 x8*x18
      + 20 x9*x10 - 12 x9*x16 + 2 x9*x17 + 14 x10*x16 + 6 x10*x17 + 8 x11*x12
      - 4 x12*x13 - 16 x13*x14 + 4 x14*x16 - 2 x15*x16 + 12 x15*x18 ]/2
Subject To
 c0: x0 + 2 x4 + x8 + x9 - 2 x12 = 0
 c1: 2 x2 - 2 x3 + 2 x5 + x17 - 2 x18 = -2
 c2: x2 + 2 x6 + 2 x8 + x11 - 2 x16 = -2

Bounds
 0 <= x0 <= 1
 0 <= x1 <= 1
 0 <= x2 <= 1
 0 <= x3 <= 1
 0 <= x4 <= 1
 0 <= x5 <= 1
 0 <= x6 <= 1
 0 <= x7 <= 1
 0 <= x8 <= 1
 0 <= x9 <= 1
 0 <= x10 <= 1
 0 <= x11 <= 1
 0 <= x12 <= 1
 0 <= x13 <= 1
 0 <= x14 <= 1
 0 <= x15 <= 1
 0 <= x16 <= 1
 0 <= x17 <= 1
 0 <= x18 <= 1

Binaries
 x0 x1 x2 x3 x4 x5 x6 x7 x8 x9 x10 x11 x12 x13 x14 x15 x16 x17 x18
End
